# Objective value = 43
WA1n 0
WA1p 0
WA2n 0
WA2p 1
WB1n 0
WB1p 0
WB2n 0
WB2p 1
WC1n 0
WC1p 0
WC2n 0
WC2p 1
WD1n 1
WD1p 0
WD2n 1
WD2p 0
WE1n 1
WE1p 0
WE2n 1
WE2p 0
WF1n 1
WF1p 0
WF2n 1
WF2p 0
WG1n 0
WG1p 1
WG2n 0
WG2p 1
WH1n 0
WH1p 1
WH2n 0
WH2p 1
WI1n 0
WI1p 1
WI2n 0
WI2p 1
WJ1n 0
WJ1p 9
WJ2n 0
WJ2p 1
WT1n 0
WT1p 6
WT2n 0
WT2p 1
5 7
a 0
b 1
c 0
d 1
e 0
f 1
g 0
h 0
i 0
j 0
k 0
l 0
m 1
n 1
o 1
p 1
q 1
r 1
s 1
t 1
u 1
v 1
